
units	real
atom_style atomic
newton off
thermo 1
read_data structure.data

pair_style	nequip
pair_coeff	* * ../toluene-deployed.pth C H 
mass            1 12
mass            2 1.00794

neighbor 1.0 bin
neigh_modify delay 5 every 1


minimize 0.0 1.0e-8 10000 1000000
write_dump all custom output.dump id type x y z fx fy fz

